SumColouring/JavaBacktracker/RandomInstances/20_0.10_1.col
c File: instances/20_0.10_1.col
c
c Description: Random graph of size 20 vertices and P(0.1) of edges between any two vertices.
p col 20 190
e 1 2
e 1 13
e 2 19
e 2 20
e 3 15
e 3 16
e 4 15
e 6 10
e 6 14
e 8 14
e 9 11
e 9 16
e 10 12
e 13 15
e 16 19