SumColouring/MiniZinc model/Experiments/20_0.10_1.col.dzn
% Data file generated from RandomInstances/20_0.10_1.col DIMACS file
size = 20;

chi = 3;

adjacency = [|0,1,0,0,0,0,0,0,0,0,0,0,1,0,0,0,0,0,0,0,
|1,0,0,0,0,0,0,0,0,0,0,0,0,0,0,0,0,0,1,1,
|0,0,0,0,0,0,0,0,0,0,0,0,0,0,1,1,0,0,0,0,
|0,0,0,0,0,0,0,0,0,0,0,0,0,0,1,0,0,0,0,0,
|0,0,0,0,0,0,0,0,0,0,0,0,0,0,0,0,0,0,0,0,
|0,0,0,0,0,0,0,0,0,1,0,0,0,1,0,0,0,0,0,0,
|0,0,0,0,0,0,0,0,0,0,0,0,0,0,0,0,0,0,0,0,
|0,0,0,0,0,0,0,0,0,0,0,0,0,1,0,0,0,0,0,0,
|0,0,0,0,0,0,0,0,0,0,1,0,0,0,0,1,0,0,0,0,
|0,0,0,0,0,1,0,0,0,0,0,1,0,0,0,0,0,0,0,0,
|0,0,0,0,0,0,0,0,1,0,0,0,0,0,0,0,0,0,0,0,
|0,0,0,0,0,0,0,0,0,1,0,0,0,0,0,0,0,0,0,0,
|1,0,0,0,0,0,0,0,0,0,0,0,0,0,1,0,0,0,0,0,
|0,0,0,0,0,1,0,1,0,0,0,0,0,0,0,0,0,0,0,0,
|0,0,1,1,0,0,0,0,0,0,0,0,1,0,0,0,0,0,0,0,
|0,0,1,0,0,0,0,0,1,0,0,0,0,0,0,0,0,0,1,0,
|0,0,0,0,0,0,0,0,0,0,0,0,0,0,0,0,0,0,0,0,
|0,0,0,0,0,0,0,0,0,0,0,0,0,0,0,0,0,0,0,0,
|0,1,0,0,0,0,0,0,0,0,0,0,0,0,0,1,0,0,0,0,
|0,1,0,0,0,0,0,0,0,0,0,0,0,0,0,0,0,0,0,0,
|];